data/solutions/recovery/degenerate/intermediate/flexible/degenerate_intermediate_instance23/46.sol
Elapsed time: 100.1
Upper bound: 227586909.0
Planning weighted value: 8.7913617736e+11
C[0]=227586909.0
C[1]=227070213.0
C[2]=226962731.0
C[3]=226775897.0
C[4]=226556415.0
C[5]=225985173.0
C[6]=225928123.0
C[7]=224915311.0
C[8]=224792326.0
C[9]=223016256.0
C[10]=222816546.0
C[11]=0.0
y[0]=8
y[1]=2
y[2]=5
y[3]=6
y[4]=7
y[5]=8
y[6]=2
y[7]=3
y[8]=4
y[9]=7
y[10]=6
y[11]=5
y[12]=8
y[13]=9
y[14]=7
y[15]=6
y[16]=10
y[17]=0
y[18]=2
y[19]=7
y[20]=9
y[21]=2
y[22]=3
y[23]=8
y[24]=5
y[25]=0
y[26]=3
y[27]=0
y[28]=6
y[29]=4
y[30]=3
y[31]=8
y[32]=9
y[33]=0
y[34]=1
y[35]=10
y[36]=8
y[37]=3
y[38]=9
y[39]=1
y[40]=10
y[41]=1
y[42]=10
y[43]=4
y[44]=8
y[45]=9
y[46]=7
y[47]=0
y[48]=4
y[49]=1
y[50]=2
y[51]=5
y[52]=0
y[53]=10
y[54]=7
y[55]=0
y[56]=2
y[57]=1
y[58]=7
y[59]=2
y[60]=4
y[61]=5
y[62]=4
y[63]=10
y[64]=6
y[65]=5
y[66]=4
y[67]=8
y[68]=8
y[69]=9
y[70]=3
y[71]=8
y[72]=6
y[73]=7
y[74]=1
y[75]=3
y[76]=9
y[77]=1
