data/solutions/recovery/degenerate/intermediate/flexible/degenerate_intermediate_instance23/46.log

Log started (V12.6.3.0) Sat Apr 21 15:45:34 2018

New value for default parallel thread count: 1

Problem '/tmp/tmpkpb1XH.pyomo.lp' read.
Read time = 0.01 sec. (0.85 ticks)

Problem name         : /tmp/tmpkpb1XH.pyomo.lp
Objective sense      : Minimize
Variables            :     950  [Nneg: 1,  Binary: 936,  General Integer: 13]
Objective nonzeros   :       1
Linear constraints   :     182  [Less: 90,  Equal: 92]
  Nonzeros           :   61117
  RHS nonzeros       :     157

Variables            : Min LB: 0.000000         Max UB: 1.000000       
Objective nonzeros   : Min   : 1.000000         Max   : 1.000000       
Linear constraints   :
  Nonzeros           : Min   : 1.000000         Max   : 6.145599e+07   
  RHS nonzeros       : Min   : 1.000000         Max   : 8.000000       
Tried aggregator 2 times.
MIP Presolve eliminated 81 rows and 140 columns.
Aggregator did 6 substitutions.
Reduced MIP has 95 rows, 804 columns, and 2247 nonzeros.
Reduced MIP has 792 binaries, 12 generals, 0 SOSs, and 0 indicators.
Presolve time = 0.01 sec. (11.05 ticks)
Found incumbent of value 7.8976966e+08 after 0.01 sec. (12.60 ticks)
Probing time = 0.00 sec. (1.59 ticks)
Tried aggregator 1 time.
Reduced MIP has 95 rows, 804 columns, and 2247 nonzeros.
Reduced MIP has 792 binaries, 12 generals, 0 SOSs, and 0 indicators.
Presolve time = 0.00 sec. (1.15 ticks)
Probing time = 0.00 sec. (1.59 ticks)
Clique table members: 72.
MIP emphasis: balance optimality and feasibility.
MIP search method: dynamic search.
Parallel mode: none, using 1 thread.
Root relaxation solution time = 0.00 sec. (1.19 ticks)

        Nodes                                         Cuts/
   Node  Left     Objective  IInf  Best Integer    Best Bound    ItCnt     Gap

*     0+    0                       7.89770e+08        0.0000           100.00%
      0     0   2.25673e+08    29   7.89770e+08   2.25673e+08      119   71.43%
      0     0   2.25673e+08    17   7.89770e+08      Fract: 3      136   71.43%
      0     0   2.25673e+08    25   7.89770e+08      Fract: 5      162   71.43%
*     0+    0                       2.54098e+08   2.25673e+08            11.19%
*     0+    0                       2.48581e+08   2.25673e+08             9.22%
*     0+    0                       2.45638e+08   2.25673e+08             8.13%
*     0+    0                       2.40452e+08   2.25673e+08             6.15%
*     0+    0                       2.36861e+08   2.25673e+08             4.72%
      0     2   2.25673e+08    15   2.36861e+08   2.25673e+08      162    4.72%
Elapsed time = 0.05 sec. (53.77 ticks, tree = 0.01 MB, solutions = 6)
*   110+   98                       2.36561e+08   2.25673e+08             4.60%
*   160+  127                       2.35290e+08   2.25673e+08             4.09%
*   267+  217                       2.34722e+08   2.25673e+08             3.86%
*   267+  216                       2.34665e+08   2.25673e+08             3.83%
*   800+  614                       2.34369e+08   2.25673e+08             3.71%
    870   677   2.25673e+08    21   2.34369e+08   2.25673e+08     4497    3.71%
    871   678   2.25673e+08    21   2.34369e+08   2.25673e+08     4498    3.71%
    872   679   2.25673e+08    21   2.34369e+08   2.25673e+08     4505    3.71%
    873   680   2.25673e+08    20   2.34369e+08   2.25673e+08     4508    3.71%
    874   681   2.25673e+08    21   2.34369e+08   2.25673e+08     4511    3.71%
    875   682   2.25673e+08    22   2.34369e+08   2.25673e+08     4512    3.71%
    876   683   2.25673e+08    22   2.34369e+08   2.25673e+08     4513    3.71%
    877   684   2.25673e+08    22   2.34369e+08   2.25673e+08     4515    3.71%
    878   685   2.25673e+08    21   2.34369e+08   2.25673e+08     4517    3.71%
*   980+  763                       2.31753e+08   2.25673e+08             2.62%
*   990+  759                       2.30958e+08   2.25673e+08             2.29%
*  1090+  854                       2.30779e+08   2.25673e+08             2.21%
*  1200+  935                       2.30109e+08   2.25673e+08             1.93%
*  1303+  649                       2.29382e+08   2.25673e+08             1.62%
   1315   638   2.28708e+08    11   2.29382e+08   2.25673e+08     6814    1.62%
Elapsed time = 0.78 sec. (1007.85 ticks, tree = 0.35 MB, solutions = 16)
*  2003+  732                       2.28805e+08   2.25673e+08             1.37%
   2203   755   2.26495e+08    25   2.28805e+08   2.25673e+08     9859    1.37%
   2204   755   2.26495e+08    25   2.28805e+08   2.25673e+08     9863    1.37%
   2205   756   2.26495e+08    24   2.28805e+08   2.25673e+08     9866    1.37%
   2206   757   2.26495e+08    24   2.28805e+08   2.25673e+08     9867    1.37%
   2207   757   2.26495e+08    25   2.28805e+08   2.25673e+08     9868    1.37%
   2208   758   2.26495e+08    25   2.28805e+08   2.25673e+08     9869    1.37%
   2209   759   2.27516e+08    26   2.28805e+08   2.25673e+08     9870    1.37%
   2210   759   2.27592e+08    25   2.28805e+08   2.25673e+08     9874    1.37%
   2211   758   2.27516e+08    26   2.28805e+08   2.25673e+08     9875    1.37%
   2212   758   2.27516e+08    23   2.28805e+08   2.25673e+08     9876    1.37%
Elapsed time = 1.67 sec. (2052.02 ticks, tree = 0.43 MB, solutions = 17)
   5088  3127   2.25673e+08    32   2.28805e+08   2.25673e+08    24749    1.37%
   5089  3128   2.25673e+08    32   2.28805e+08   2.25673e+08    24756    1.37%
   5090  3129   2.25673e+08    33   2.28805e+08   2.25673e+08    24760    1.37%
   5091  3130   2.25673e+08    37   2.28805e+08   2.25673e+08    24766    1.37%
   5092  3131   2.25673e+08    36   2.28805e+08   2.25673e+08    24768    1.37%
   5093  3132   2.25673e+08    33   2.28805e+08   2.25673e+08    24776    1.37%
   5094  3133   2.25734e+08    43   2.28805e+08   2.25673e+08    24878    1.37%
   5095  3134   2.28056e+08    26   2.28805e+08   2.25673e+08    24887    1.37%
   5096  3135   2.28056e+08    23   2.28805e+08   2.25673e+08    24888    1.37%
   5097  3136   2.28056e+08    27   2.28805e+08   2.25673e+08    24891    1.37%
Elapsed time = 2.40 sec. (3009.67 ticks, tree = 1.81 MB, solutions = 17)
   8459  6195   2.25789e+08    39   2.28805e+08   2.25673e+08    43367    1.37%
   8460  6195   2.26607e+08    35   2.28805e+08   2.25673e+08    43372    1.37%
   8461  6196   2.26732e+08    35   2.28805e+08   2.25673e+08    43376    1.37%
   8462  6197   2.26732e+08    35   2.28805e+08   2.25673e+08    43377    1.37%
   8463  6198   2.26732e+08    34   2.28805e+08   2.25673e+08    43381    1.37%
   8464  6199   2.26732e+08    34   2.28805e+08   2.25673e+08    43383    1.37%
   8465  6200   2.26732e+08    35   2.28805e+08   2.25673e+08    43384    1.37%
   8466  6201   2.26732e+08    35   2.28805e+08   2.25673e+08    43386    1.37%
   8467  6202   2.26732e+08    35   2.28805e+08   2.25673e+08    43388    1.37%
   8468  6203   2.26732e+08    35   2.28805e+08   2.25673e+08    43389    1.37%
Elapsed time = 3.14 sec. (3966.90 ticks, tree = 3.56 MB, solutions = 17)
  11163  8588   2.26273e+08    34   2.28805e+08   2.25673e+08    64188    1.37%
  11164  8589   2.25673e+08    28   2.28805e+08   2.25673e+08    64222    1.37%
  11165  8590   2.25828e+08    35   2.28805e+08   2.25673e+08    64301    1.37%
  11166  8590   2.25828e+08    35   2.28805e+08   2.25673e+08    64303    1.37%
  11167  8591   2.25828e+08    31   2.28805e+08   2.25673e+08    64321    1.37%
  11168  8592   2.25828e+08    29   2.28805e+08   2.25673e+08    64329    1.37%
  11169  8593   2.25828e+08    29   2.28805e+08   2.25673e+08    64330    1.37%
  11170  8594   2.25828e+08    29   2.28805e+08   2.25673e+08    64339    1.37%
  11171  8595   2.25828e+08    29   2.28805e+08   2.25673e+08    64340    1.37%
  11172  8596   2.25828e+08    29   2.28805e+08   2.25673e+08    64345    1.37%
Elapsed time = 4.11 sec. (5198.19 ticks, tree = 5.15 MB, solutions = 17)
  13585 10505   2.28520e+08    31   2.28805e+08   2.25673e+08    85803    1.37%
  13586 10506   2.28520e+08    31   2.28805e+08   2.25673e+08    85807    1.37%
  13587 10507   2.28520e+08    26   2.28805e+08   2.25673e+08    85810    1.37%
  13588 10508   2.28520e+08    26   2.28805e+08   2.25673e+08    85819    1.37%
  13589 10507   2.28520e+08    26   2.28805e+08   2.25673e+08    85822    1.37%
  13590 10506        cutoff         2.28805e+08   2.25673e+08    85825    1.37%
  13591 10507   2.25673e+08    21   2.28805e+08   2.25673e+08    85881    1.37%
  13592 10508   2.25673e+08    21   2.28805e+08   2.25673e+08    85903    1.37%
  13593 10509   2.25673e+08    22   2.28805e+08   2.25673e+08    85913    1.37%
  13594 10510   2.25673e+08    20   2.28805e+08   2.25673e+08    85926    1.37%
Elapsed time = 4.83 sec. (6168.94 ticks, tree = 6.22 MB, solutions = 17)
  15452 12017   2.28708e+08    18   2.28805e+08   2.25673e+08   106252    1.37%
  15453 12018   2.28708e+08    17   2.28805e+08   2.25673e+08   106266    1.37%
  15454 12019   2.28708e+08    20   2.28805e+08   2.25673e+08   106273    1.37%
  15455 12020   2.28708e+08    20   2.28805e+08   2.25673e+08   106274    1.37%
  15456 12021   2.28708e+08    19   2.28805e+08   2.25673e+08   106281    1.37%
  15457 12022   2.28708e+08    19   2.28805e+08   2.25673e+08   106283    1.37%
  15458 12023   2.28708e+08    19   2.28805e+08   2.25673e+08   106284    1.37%
  15459 12024   2.28708e+08    19   2.28805e+08   2.25673e+08   106285    1.37%
  15460 12025   2.28708e+08    20   2.28805e+08   2.25673e+08   106286    1.37%
  15461 12026   2.28708e+08    20   2.28805e+08   2.25673e+08   106287    1.37%
Elapsed time = 5.53 sec. (7124.90 ticks, tree = 7.05 MB, solutions = 17)
  17223 13499   2.25673e+08    36   2.28805e+08   2.25673e+08   126847    1.37%
  17224 13500   2.25673e+08    37   2.28805e+08   2.25673e+08   126849    1.37%
  17225 13501   2.25673e+08    37   2.28805e+08   2.25673e+08   126850    1.37%
  17226 13502   2.25673e+08    36   2.28805e+08   2.25673e+08   126852    1.37%
  17227 13503   2.25673e+08    34   2.28805e+08   2.25673e+08   126855    1.37%
  17228 13504   2.25673e+08    33   2.28805e+08   2.25673e+08   126856    1.37%
  17229 13505   2.25673e+08    29   2.28805e+08   2.25673e+08   126858    1.37%
  17230 13506   2.25673e+08    31   2.28805e+08   2.25673e+08   126867    1.37%
  17231 13507   2.25673e+08    31   2.28805e+08   2.25673e+08   126869    1.37%
  17232 13508   2.25673e+08    35   2.28805e+08   2.25673e+08   126926    1.37%
Elapsed time = 6.23 sec. (8082.20 ticks, tree = 7.91 MB, solutions = 17)
  19351 15363   2.27433e+08    19   2.28805e+08   2.25673e+08   143472    1.37%
  19352 15364   2.27433e+08    14   2.28805e+08   2.25673e+08   143484    1.37%
  19353 15365   2.27433e+08    14   2.28805e+08   2.25673e+08   143485    1.37%
  19354 15366   2.27433e+08    13   2.28805e+08   2.25673e+08   143486    1.37%
  19355 15367   2.27433e+08    13   2.28805e+08   2.25673e+08   143488    1.37%
  19356 15368   2.27433e+08    12   2.28805e+08   2.25673e+08   143490    1.37%
  19357 15369   2.27835e+08     9   2.28805e+08   2.25673e+08   143511    1.37%
  19358 15368        cutoff         2.28805e+08   2.25673e+08   143520    1.37%
  19359 15367        cutoff         2.28805e+08   2.25673e+08   143524    1.37%
  19360 15368   2.25673e+08    19   2.28805e+08   2.25673e+08   143579    1.37%
Elapsed time = 6.95 sec. (9052.52 ticks, tree = 9.02 MB, solutions = 17)
  21510 17211   2.25673e+08    30   2.28805e+08   2.25673e+08   158949    1.37%
  21511 17212   2.25673e+08    32   2.28805e+08   2.25673e+08   158951    1.37%
  21512 17213   2.25673e+08    29   2.28805e+08   2.25673e+08   158953    1.37%
  21513 17214   2.25673e+08    29   2.28805e+08   2.25673e+08   158956    1.37%
  21514 17215   2.25673e+08    29   2.28805e+08   2.25673e+08   158961    1.37%
  21515 17216   2.25673e+08    28   2.28805e+08   2.25673e+08   158970    1.37%
  21516 17217   2.25673e+08    25   2.28805e+08   2.25673e+08   158972    1.37%
  21517 17218   2.25673e+08    25   2.28805e+08   2.25673e+08   158973    1.37%
  21518 17219   2.25673e+08    30   2.28805e+08   2.25673e+08   158990    1.37%
  26841 21909        cutoff         2.28805e+08   2.25673e+08   212155    1.37%
Elapsed time = 9.77 sec. (12882.99 ticks, tree = 13.42 MB, solutions = 17)
  30761 25075   2.27433e+08    15   2.28805e+08   2.25673e+08   275426    1.37%
  30762 25076   2.27927e+08    23   2.28805e+08   2.25673e+08   275509    1.37%
  30763 25077   2.27927e+08    23   2.28805e+08   2.25673e+08   275519    1.37%
  30764 25078   2.27927e+08    24   2.28805e+08   2.25673e+08   275522    1.37%
  30765 25079   2.28139e+08    18   2.28805e+08   2.25673e+08   275534    1.37%
  30766 25078        cutoff         2.28805e+08   2.25673e+08   275536    1.37%
  30767 25077        cutoff         2.28805e+08   2.25673e+08   275539    1.37%
  30768 25078   2.25673e+08    36   2.28805e+08   2.25673e+08   275821    1.37%
  30769 25079   2.25673e+08    36   2.28805e+08   2.25673e+08   275823    1.37%
  30770 25080   2.25673e+08    34   2.28805e+08   2.25673e+08   275831    1.37%
Elapsed time = 12.60 sec. (16718.71 ticks, tree = 15.39 MB, solutions = 17)
  34397 28155   2.25677e+08    49   2.28805e+08   2.25673e+08   337068    1.37%
  34398 28156   2.25677e+08    49   2.28805e+08   2.25673e+08   337081    1.37%
  34399 28157   2.25677e+08    49   2.28805e+08   2.25673e+08   337082    1.37%
  34400 28158   2.25677e+08    43   2.28805e+08   2.25673e+08   337095    1.37%
  34401 28159   2.25773e+08    61   2.28805e+08   2.25673e+08   337246    1.37%
  34402 28160   2.25677e+08    42   2.28805e+08   2.25673e+08   337266    1.37%
  34403 28161   2.25677e+08    58   2.28805e+08   2.25673e+08   337268    1.37%
  34404 28162   2.25677e+08    59   2.28805e+08   2.25673e+08   337270    1.37%
  34405 28163   2.25677e+08    57   2.28805e+08   2.25673e+08   337272    1.37%
  34406 28164   2.25677e+08    43   2.28805e+08   2.25673e+08   337276    1.37%
Elapsed time = 15.26 sec. (20544.56 ticks, tree = 17.25 MB, solutions = 17)
  38800 32074   2.26129e+08    30   2.28805e+08   2.25673e+08   399794    1.37%
  38801 32075   2.26136e+08    39   2.28805e+08   2.25673e+08   399799    1.37%
  38802 32076   2.26136e+08    40   2.28805e+08   2.25673e+08   399802    1.37%
  38803 32077   2.26136e+08    38   2.28805e+08   2.25673e+08   399805    1.37%
  38804 32078   2.26137e+08    38   2.28805e+08   2.25673e+08   399806    1.37%
  38805 32079   2.26137e+08    38   2.28805e+08   2.25673e+08   399807    1.37%
  38806 32080   2.26166e+08    32   2.28805e+08   2.25673e+08   399809    1.37%
  38807 32081   2.26233e+08    38   2.28805e+08   2.25673e+08   399813    1.37%
  38808 32082   2.26235e+08    34   2.28805e+08   2.25673e+08   399816    1.37%
  38809 32083   2.26383e+08    39   2.28805e+08   2.25673e+08   399831    1.37%
Elapsed time = 17.93 sec. (24372.07 ticks, tree = 19.59 MB, solutions = 17)
  43503 36220   2.25673e+08    31   2.28805e+08   2.25673e+08   462195    1.37%
  43504 36221   2.25673e+08    31   2.28805e+08   2.25673e+08   462196    1.37%
  43505 36222   2.25673e+08    29   2.28805e+08   2.25673e+08   462208    1.37%
  43506 36223   2.25673e+08    30   2.28805e+08   2.25673e+08   462215    1.37%
  43507 36224   2.25673e+08    30   2.28805e+08   2.25673e+08   462217    1.37%
  43508 36225   2.25673e+08    31   2.28805e+08   2.25673e+08   462219    1.37%
  43509 36226   2.25673e+08    30   2.28805e+08   2.25673e+08   462227    1.37%
  43510 36227   2.25673e+08    29   2.28805e+08   2.25673e+08   462229    1.37%
  43511 36228   2.25673e+08    27   2.28805e+08   2.25673e+08   462233    1.37%
  43512 36229   2.25673e+08    27   2.28805e+08   2.25673e+08   462240    1.37%
Elapsed time = 20.65 sec. (28193.56 ticks, tree = 23.09 MB, solutions = 17)
* 45203+37504                       2.28745e+08   2.25673e+08             1.34%
* 45362+37301                       2.28708e+08   2.25673e+08             1.33%
  46843 38664   2.26774e+08    35   2.28708e+08   2.25673e+08   520023    1.33%
  46844 38665   2.27433e+08    15   2.28708e+08   2.25673e+08   520027    1.33%
  46845 38666   2.27717e+08    22   2.28708e+08   2.25673e+08   520032    1.33%
  46846 38665        cutoff         2.28708e+08   2.25673e+08   520055    1.33%
  46847 38666   2.27717e+08    24   2.28708e+08   2.25673e+08   520062    1.33%
  46848 38667   2.27717e+08    23   2.28708e+08   2.25673e+08   520068    1.33%
  46849 38668   2.27717e+08    26   2.28708e+08   2.25673e+08   520083    1.33%
  46850 38669   2.27717e+08    26   2.28708e+08   2.25673e+08   520084    1.33%
  46851 38669   2.27724e+08    24   2.28708e+08   2.25673e+08   520087    1.33%
  46852 38668        cutoff         2.28708e+08   2.25673e+08   520088    1.33%
Elapsed time = 23.99 sec. (32018.76 ticks, tree = 24.57 MB, solutions = 19)
* 50003+41514                       2.28687e+08   2.25673e+08             1.32%
  50981 42283   2.26696e+08    22   2.28687e+08   2.25673e+08   580634    1.32%
  50982 42284   2.26696e+08    22   2.28687e+08   2.25673e+08   580644    1.32%
  50983 42285   2.26696e+08    24   2.28687e+08   2.25673e+08   580662    1.32%
  50984 42286   2.26696e+08    23   2.28687e+08   2.25673e+08   580663    1.32%
  50985 42287   2.26696e+08    24   2.28687e+08   2.25673e+08   580669    1.32%
  50986 42288   2.26696e+08    24   2.28687e+08   2.25673e+08   580671    1.32%
  50987 42289   2.26696e+08    25   2.28687e+08   2.25673e+08   580686    1.32%
  50988 42290   2.26696e+08    25   2.28687e+08   2.25673e+08   580687    1.32%
  50989 42291   2.26696e+08    22   2.28687e+08   2.25673e+08   580689    1.32%
  50990 42292   2.26696e+08    31   2.28687e+08   2.25673e+08   580732    1.32%
Elapsed time = 27.63 sec. (35842.30 ticks, tree = 26.76 MB, solutions = 20)
* 51503+41357                       2.28014e+08   2.25673e+08             1.03%
* 52303+41992                       2.28003e+08   2.25673e+08             1.02%
* 52303+41184                       2.27714e+08   2.25673e+08             0.90%
  54617 43207   2.25744e+08    38   2.27714e+08   2.25673e+08   639267    0.90%
  54618 43208   2.25744e+08    38   2.27714e+08   2.25673e+08   639268    0.90%
  54619 43209   2.25744e+08    36   2.27714e+08   2.25673e+08   639269    0.90%
  54620 43210   2.25744e+08    35   2.27714e+08   2.25673e+08   639274    0.90%
  54621 43211   2.25744e+08    40   2.27714e+08   2.25673e+08   639276    0.90%
  54622 43212   2.25744e+08    35   2.27714e+08   2.25673e+08   639278    0.90%
  54623 43213   2.25744e+08    34   2.27714e+08   2.25673e+08   639280    0.90%
  54624 43214   2.25751e+08    33   2.27714e+08   2.25673e+08   639293    0.90%
  54625 43215   2.25756e+08    33   2.27714e+08   2.25673e+08   639295    0.90%
  54626 43216   2.25841e+08    34   2.27714e+08   2.25673e+08   639300    0.90%
Elapsed time = 31.27 sec. (39660.39 ticks, tree = 27.12 MB, solutions = 23)
  60355 48303   2.26333e+08    29   2.27714e+08   2.25673e+08   701243    0.90%
  60356 48304   2.26335e+08    32   2.27714e+08   2.25673e+08   701248    0.90%
  60357 48305   2.26390e+08    31   2.27714e+08   2.25673e+08   701253    0.90%
  60358 48306   2.26563e+08    32   2.27714e+08   2.25673e+08   701257    0.90%
  60359 48307   2.26566e+08    29   2.27714e+08   2.25673e+08   701258    0.90%
  60360 48308   2.26567e+08    29   2.27714e+08   2.25673e+08   701259    0.90%
  60361 48309   2.26568e+08    29   2.27714e+08   2.25673e+08   701260    0.90%
  60362 48308        cutoff         2.27714e+08   2.25673e+08   701265    0.90%
  60363 48307        cutoff         2.27714e+08   2.25673e+08   701272    0.90%
  60364 48306        cutoff         2.27714e+08   2.25673e+08   701384    0.90%
Elapsed time = 34.77 sec. (43482.81 ticks, tree = 30.25 MB, solutions = 23)
  66333 53436   2.25673e+08    33   2.27714e+08   2.25673e+08   768693    0.90%
  66334 53437   2.25673e+08    32   2.27714e+08   2.25673e+08   768699    0.90%
  66335 53438   2.25673e+08    28   2.27714e+08   2.25673e+08   768716    0.90%
  66336 53439   2.25673e+08    29   2.27714e+08   2.25673e+08   768720    0.90%
  66337 53440   2.25673e+08    32   2.27714e+08   2.25673e+08   768761    0.90%
  66338 53441   2.25673e+08    34   2.27714e+08   2.25673e+08   768768    0.90%
  66339 53442   2.25673e+08    34   2.27714e+08   2.25673e+08   768769    0.90%
  66340 53443   2.25673e+08    31   2.27714e+08   2.25673e+08   768771    0.90%
  66341 53444   2.25673e+08    28   2.27714e+08   2.25673e+08   768802    0.90%
  66342 53445   2.25673e+08    32   2.27714e+08   2.25673e+08   768819    0.90%
Elapsed time = 38.24 sec. (47305.79 ticks, tree = 33.55 MB, solutions = 23)
  72702 58992   2.25673e+08    33   2.27714e+08   2.25673e+08   839126    0.90%
  72703 58993   2.25673e+08    31   2.27714e+08   2.25673e+08   839128    0.90%
  72704 58994   2.25673e+08    32   2.27714e+08   2.25673e+08   839134    0.90%
  72705 58995   2.25673e+08    34   2.27714e+08   2.25673e+08   839153    0.90%
  72706 58996   2.25673e+08    36   2.27714e+08   2.25673e+08   839158    0.90%
  72707 58997   2.25673e+08    37   2.27714e+08   2.25673e+08   839161    0.90%
  72708 58998   2.25673e+08    34   2.27714e+08   2.25673e+08   839169    0.90%
  72709 58999   2.25673e+08    36   2.27714e+08   2.25673e+08   839184    0.90%
  72710 59000   2.25673e+08    34   2.27714e+08   2.25673e+08   839185    0.90%
  72711 59001   2.25673e+08    34   2.27714e+08   2.25673e+08   839189    0.90%
Elapsed time = 42.17 sec. (51126.67 ticks, tree = 36.98 MB, solutions = 23)
  78386 64095   2.26625e+08    27   2.27714e+08   2.25673e+08   911557    0.90%
  78387 64094        cutoff         2.27714e+08   2.25673e+08   911559    0.90%
  78388 64093        cutoff         2.27714e+08   2.25673e+08   911560    0.90%
  78389 64092    infeasible         2.27714e+08   2.25673e+08   911560    0.90%
  78390 64093   2.25858e+08    34   2.27714e+08   2.25673e+08   911575    0.90%
  78391 64094   2.25858e+08    32   2.27714e+08   2.25673e+08   911616    0.90%
  78392 64095   2.25881e+08    45   2.27714e+08   2.25673e+08   911709    0.90%
  78393 64096   2.25881e+08    45   2.27714e+08   2.25673e+08   911712    0.90%
  78394 64097   2.25886e+08    36   2.27714e+08   2.25673e+08   911715    0.90%
  78395 64098   2.25886e+08    36   2.27714e+08   2.25673e+08   911716    0.90%
Elapsed time = 45.66 sec. (54949.78 ticks, tree = 40.07 MB, solutions = 23)
  84033 69101   2.26201e+08    31   2.27714e+08   2.25673e+08   982516    0.90%
  84034 69102   2.26201e+08    31   2.27714e+08   2.25673e+08   982533    0.90%
  84035 69103   2.26201e+08    31   2.27714e+08   2.25673e+08   982552    0.90%
  84036 69104   2.26201e+08    53   2.27714e+08   2.25673e+08   982641    0.90%
  84037 69105   2.26201e+08    55   2.27714e+08   2.25673e+08   982643    0.90%
  84038 69106   2.26201e+08    50   2.27714e+08   2.25673e+08   982649    0.90%
  84039 69107   2.26201e+08    46   2.27714e+08   2.25673e+08   982685    0.90%
  84040 69108   2.26201e+08    44   2.27714e+08   2.25673e+08   982687    0.90%
  84041 69109   2.26201e+08    39   2.27714e+08   2.25673e+08   982697    0.90%
  84042 69110   2.26201e+08    40   2.27714e+08   2.25673e+08   982709    0.90%
Elapsed time = 49.14 sec. (58774.15 ticks, tree = 44.97 MB, solutions = 23)
  89992 73895   2.26900e+08    39   2.27714e+08   2.25673e+08  1062442    0.90%
  89993 73894        cutoff         2.27714e+08   2.25673e+08  1062476    0.90%
  89994 73895   2.26900e+08    38   2.27714e+08   2.25673e+08  1062517    0.90%
  89995 73896   2.26900e+08    37   2.27714e+08   2.25673e+08  1062522    0.90%
  89996 73897   2.26900e+08    38   2.27714e+08   2.25673e+08  1062538    0.90%
  89997 73898   2.26900e+08    39   2.27714e+08   2.25673e+08  1062552    0.90%
  89998 73899   2.26900e+08    38   2.27714e+08   2.25673e+08  1062553    0.90%
  89999 73900   2.26900e+08    38   2.27714e+08   2.25673e+08  1062556    0.90%
  90000 73901   2.26900e+08    39   2.27714e+08   2.25673e+08  1062575    0.90%
  90001 73902   2.26900e+08    34   2.27714e+08   2.25673e+08  1062577    0.90%
Elapsed time = 52.65 sec. (62596.83 ticks, tree = 47.99 MB, solutions = 23)
  95201 77916   2.26282e+08    37   2.27714e+08   2.25673e+08  1141751    0.90%
  95202 77917   2.26282e+08    38   2.27714e+08   2.25673e+08  1141754    0.90%
  95203 77918   2.26282e+08    37   2.27714e+08   2.25673e+08  1141755    0.90%
  95204 77919   2.26282e+08    35   2.27714e+08   2.25673e+08  1141768    0.90%
  95205 77920   2.26282e+08    35   2.27714e+08   2.25673e+08  1141782    0.90%
  95206 77921   2.26282e+08    35   2.27714e+08   2.25673e+08  1141783    0.90%
  95207 77922   2.26282e+08    34   2.27714e+08   2.25673e+08  1141784    0.90%
  95208 77923   2.26282e+08    37   2.27714e+08   2.25673e+08  1141787    0.90%
  95209 77924   2.26282e+08    35   2.27714e+08   2.25673e+08  1141799    0.90%
  95210 77925   2.26282e+08    35   2.27714e+08   2.25673e+08  1141801    0.90%
Elapsed time = 56.14 sec. (66416.83 ticks, tree = 50.50 MB, solutions = 23)
 100310 81672   2.25673e+08    26   2.27714e+08   2.25673e+08  1220214    0.90%
 100311 81673   2.25673e+08    24   2.27714e+08   2.25673e+08  1220234    0.90%
 100312 81674   2.25673e+08    23   2.27714e+08   2.25673e+08  1220241    0.90%
 100313 81675   2.25673e+08    28   2.27714e+08   2.25673e+08  1220273    0.90%
 100314 81676   2.25673e+08    29   2.27714e+08   2.25673e+08  1220326    0.90%
 100315 81677   2.25673e+08    28   2.27714e+08   2.25673e+08  1220328    0.90%
 100316 81678   2.25673e+08    27   2.27714e+08   2.25673e+08  1220355    0.90%
 100317 81679   2.25673e+08    27   2.27714e+08   2.25673e+08  1220360    0.90%
 100318 81680   2.25673e+08    28   2.27714e+08   2.25673e+08  1220380    0.90%
 100319 81681   2.25673e+08    27   2.27714e+08   2.25673e+08  1220381    0.90%
Elapsed time = 59.73 sec. (70239.11 ticks, tree = 52.89 MB, solutions = 23)
 104647 84892   2.27433e+08    21   2.27714e+08   2.25673e+08  1284047    0.90%
 104648 84891        cutoff         2.27714e+08   2.25673e+08  1284157    0.90%
 104649 84890        cutoff         2.27714e+08   2.25673e+08  1284178    0.90%
 104650 84890   2.27433e+08    25   2.27714e+08   2.25673e+08  1284453    0.90%
 104651 84891   2.27433e+08    25   2.27714e+08   2.25673e+08  1284464    0.90%
 104652 84890        cutoff         2.27714e+08   2.25673e+08  1284478    0.90%
 104653 84889    infeasible         2.27714e+08   2.25673e+08  1284478    0.90%
 104654 84888    infeasible         2.27714e+08   2.25673e+08  1284534    0.90%
 104655 84889   2.25673e+08    25   2.27714e+08   2.25673e+08  1284590    0.90%
 104656 84890   2.25673e+08    30   2.27714e+08   2.25673e+08  1284614    0.90%
Elapsed time = 63.30 sec. (74080.59 ticks, tree = 54.92 MB, solutions = 23)
 109411 88752   2.25689e+08    40   2.27714e+08   2.25673e+08  1360080    0.90%
 109412 88753   2.25689e+08    39   2.27714e+08   2.25673e+08  1360081    0.90%
 109413 88754   2.25689e+08    38   2.27714e+08   2.25673e+08  1360082    0.90%
 109414 88755   2.25690e+08    38   2.27714e+08   2.25673e+08  1360122    0.90%
 109415 88756   2.25691e+08    44   2.27714e+08   2.25673e+08  1360124    0.90%
 109416 88757   2.25691e+08    35   2.27714e+08   2.25673e+08  1360126    0.90%
 109417 88758   2.25691e+08    42   2.27714e+08   2.25673e+08  1360129    0.90%
 109418 88759   2.25693e+08    41   2.27714e+08   2.25673e+08  1360130    0.90%
 109419 88760   2.25695e+08    36   2.27714e+08   2.25673e+08  1360133    0.90%
 109420 88761   2.25695e+08    36   2.27714e+08   2.25673e+08  1360134    0.90%
Elapsed time = 66.90 sec. (77901.94 ticks, tree = 57.30 MB, solutions = 23)
 114808 93385   2.25673e+08    28   2.27714e+08   2.25673e+08  1433559    0.90%
 114809 93386   2.25673e+08    28   2.27714e+08   2.25673e+08  1433560    0.90%
 114810 93387   2.25673e+08    28   2.27714e+08   2.25673e+08  1433561    0.90%
 114811 93388   2.25673e+08    28   2.27714e+08   2.25673e+08  1433562    0.90%
 114812 93389   2.25673e+08    28   2.27714e+08   2.25673e+08  1433565    0.90%
 114813 93390   2.25673e+08    29   2.27714e+08   2.25673e+08  1433583    0.90%
 114814 93391   2.25673e+08    27   2.27714e+08   2.25673e+08  1433619    0.90%
 114815 93392   2.25673e+08    27   2.27714e+08   2.25673e+08  1433621    0.90%
 114816 93393   2.25673e+08    28   2.27714e+08   2.25673e+08  1433643    0.90%
 114817 93394   2.25673e+08    30   2.27714e+08   2.25673e+08  1433667    0.90%
Elapsed time = 70.44 sec. (81721.94 ticks, tree = 60.21 MB, solutions = 23)
 119876 97738   2.27654e+08    33   2.27714e+08   2.25673e+08  1499782    0.90%
 119877 97739   2.27244e+08    39   2.27714e+08   2.25673e+08  1499844    0.90%
 119878 97740   2.27249e+08    39   2.27714e+08   2.25673e+08  1499845    0.90%
 119879 97740   2.27282e+08    40   2.27714e+08   2.25673e+08  1499849    0.90%
 119880 97741   2.27282e+08    40   2.27714e+08   2.25673e+08  1499850    0.90%
 119881 97742   2.27455e+08    42   2.27714e+08   2.25673e+08  1499866    0.90%
 119882 97742   2.27455e+08    36   2.27714e+08   2.25673e+08  1499867    0.90%
 119883 97741        cutoff         2.27714e+08   2.25673e+08  1499869    0.90%
 119884 97742   2.25705e+08    49   2.27714e+08   2.25673e+08  1500023    0.90%
 119885 97743   2.25705e+08    51   2.27714e+08   2.25673e+08  1500027    0.90%
Elapsed time = 73.94 sec. (85547.49 ticks, tree = 62.91 MB, solutions = 23)
 125103 102071   2.25673e+08    31   2.27714e+08   2.25673e+08  1570692    0.90%
 125104 102072   2.25673e+08    28   2.27714e+08   2.25673e+08  1570755    0.90%
 125105 102073   2.25673e+08    30   2.27714e+08   2.25673e+08  1570757    0.90%
 125106 102074   2.25673e+08    28   2.27714e+08   2.25673e+08  1570762    0.90%
 125107 102075   2.25673e+08    27   2.27714e+08   2.25673e+08  1570776    0.90%
 125108 102076   2.25673e+08    33   2.27714e+08   2.25673e+08  1570798    0.90%
 125109 102077   2.25673e+08    32   2.27714e+08   2.25673e+08  1570814    0.90%
 125110 102078   2.25673e+08    29   2.27714e+08   2.25673e+08  1570834    0.90%
 125111 102079   2.25673e+08    32   2.27714e+08   2.25673e+08  1570852    0.90%
 125112 102080   2.25673e+08    32   2.27714e+08   2.25673e+08  1570858    0.90%
Elapsed time = 77.50 sec. (89371.43 ticks, tree = 65.53 MB, solutions = 23)
*129103+104076                       2.27587e+08   2.25673e+08             0.84%
 129811 104587   2.27245e+08    14   2.27587e+08   2.25673e+08  1645609    0.84%
 129812 104586        cutoff         2.27587e+08   2.25673e+08  1645619    0.84%
 129813 104585        cutoff         2.27587e+08   2.25673e+08  1645637    0.84%
 129814 104584        cutoff         2.27587e+08   2.25673e+08  1645710    0.84%
 129815 104583        cutoff         2.27587e+08   2.25673e+08  1645751    0.84%
 129816 104582        cutoff         2.27587e+08   2.25673e+08  1645781    0.84%
 129817 104581        cutoff         2.27587e+08   2.25673e+08  1645821    0.84%
 129818 104582   2.25673e+08    26   2.27587e+08   2.25673e+08  1645900    0.84%
 129819 104583   2.25673e+08    25   2.27587e+08   2.25673e+08  1645923    0.84%
 129820 104584   2.25673e+08    25   2.27587e+08   2.25673e+08  1645931    0.84%
Elapsed time = 81.07 sec. (93198.72 ticks, tree = 67.09 MB, solutions = 24)
 134670 108363   2.25673e+08    27   2.27587e+08   2.25673e+08  1718885    0.84%
 134671 108364   2.25673e+08    27   2.27587e+08   2.25673e+08  1718887    0.84%
 134672 108365   2.25673e+08    31   2.27587e+08   2.25673e+08  1718943    0.84%
 134673 108366   2.25673e+08    31   2.27587e+08   2.25673e+08  1718945    0.84%
 134674 108367   2.25673e+08    30   2.27587e+08   2.25673e+08  1718947    0.84%
 134675 108368   2.25673e+08    30   2.27587e+08   2.25673e+08  1718975    0.84%
 134676 108369   2.25673e+08    31   2.27587e+08   2.25673e+08  1718976    0.84%
 134677 108370   2.25673e+08    24   2.27587e+08   2.25673e+08  1719013    0.84%
 134678 108371   2.25673e+08    27   2.27587e+08   2.25673e+08  1719018    0.84%
 134679 108370        cutoff         2.27587e+08   2.25673e+08  1719058    0.84%
Elapsed time = 84.65 sec. (97023.30 ticks, tree = 69.48 MB, solutions = 24)
 139996 112534   2.25673e+08    20   2.27587e+08   2.25673e+08  1793458    0.84%
 139997 112535   2.25673e+08    26   2.27587e+08   2.25673e+08  1793478    0.84%
 139998 112536   2.25673e+08    25   2.27587e+08   2.25673e+08  1793495    0.84%
 139999 112537   2.25673e+08    25   2.27587e+08   2.25673e+08  1793496    0.84%
 140000 112538   2.25673e+08    25   2.27587e+08   2.25673e+08  1793502    0.84%
 140001 112539   2.25673e+08    26   2.27587e+08   2.25673e+08  1793507    0.84%
 140002 112540   2.25673e+08    26   2.27587e+08   2.25673e+08  1793521    0.84%
 140003 112541   2.25673e+08    24   2.27587e+08   2.25673e+08  1793522    0.84%
 140004 112542   2.25673e+08    24   2.27587e+08   2.25673e+08  1793523    0.84%
 140005 112543   2.25673e+08    21   2.27587e+08   2.25673e+08  1793562    0.84%
Elapsed time = 88.20 sec. (100847.54 ticks, tree = 72.07 MB, solutions = 24)
 144444 115753        cutoff         2.27587e+08   2.25673e+08  1861684    0.84%
 144445 115754   2.25673e+08    23   2.27587e+08   2.25673e+08  1861797    0.84%
 144446 115755   2.25673e+08    22   2.27587e+08   2.25673e+08  1861798    0.84%
 144447 115756   2.25673e+08    22   2.27587e+08   2.25673e+08  1861835    0.84%
 144448 115757   2.25673e+08    21   2.27587e+08   2.25673e+08  1861837    0.84%
 144449 115758   2.25673e+08    21   2.27587e+08   2.25673e+08  1861857    0.84%
 144450 115759   2.25673e+08    21   2.27587e+08   2.25673e+08  1861866    0.84%
 144451 115760   2.25673e+08    21   2.27587e+08   2.25673e+08  1861880    0.84%
 144452 115761   2.25673e+08    22   2.27587e+08   2.25673e+08  1861908    0.84%
 144453 115762   2.25673e+08    22   2.27587e+08   2.25673e+08  1861909    0.84%
Elapsed time = 91.60 sec. (104674.03 ticks, tree = 74.11 MB, solutions = 24)
 147046 117061        cutoff         2.27587e+08   2.25673e+08  1915763    0.84%
 147047 117060        cutoff         2.27587e+08   2.25673e+08  1915836    0.84%
 147048 117059        cutoff         2.27587e+08   2.25673e+08  1915915    0.84%
 147049 117060   2.25673e+08    23   2.27587e+08   2.25673e+08  1915985    0.84%
 147050 117060   2.25802e+08    33   2.27587e+08   2.25673e+08  1916136    0.84%
 147051 117059        cutoff         2.27587e+08   2.25673e+08  1916141    0.84%
 147052 117058        cutoff         2.27587e+08   2.25673e+08  1916206    0.84%
 147053 117057        cutoff         2.27587e+08   2.25673e+08  1916245    0.84%
 147054 117057   2.26029e+08    29   2.27587e+08   2.25673e+08  1916403    0.84%
 147055 117056        cutoff         2.27587e+08   2.25673e+08  1916420    0.84%
Elapsed time = 95.07 sec. (108517.99 ticks, tree = 74.96 MB, solutions = 24)
 151092 119543   2.27476e+08    30   2.27587e+08   2.25673e+08  1997749    0.84%
 151093 119542        cutoff         2.27587e+08   2.25673e+08  1997753    0.84%
 151094 119541    infeasible         2.27587e+08   2.25673e+08  1997753    0.84%
 151095 119540        cutoff         2.27587e+08   2.25673e+08  1997830    0.84%
 151096 119539    infeasible         2.27587e+08   2.25673e+08  1997830    0.84%
 151097 119538        cutoff         2.27587e+08   2.25673e+08  1997916    0.84%
 151098 119537        cutoff         2.27587e+08   2.25673e+08  1997931    0.84%
 151099 119536        cutoff         2.27587e+08   2.25673e+08  1998065    0.84%
 151100 119535    infeasible         2.27587e+08   2.25673e+08  1998065    0.84%
 151101 119534    infeasible         2.27587e+08   2.25673e+08  1998065    0.84%
Elapsed time = 98.71 sec. (112345.44 ticks, tree = 76.54 MB, solutions = 24)

Cover cuts applied:  460
Mixed integer rounding cuts applied:  10
Gomory fractional cuts applied:  6

Root node processing (before b&c):
  Real time             =    0.05 sec. (53.92 ticks)
Sequential b&c:
  Real time             =   99.95 sec. (113720.87 ticks)
                          ------------
Total (root+branch&cut) =  100.00 sec. (113774.79 ticks)

Solution pool: 24 solutions saved.

MIP - Time limit exceeded, integer feasible:  Objective =  2.2758690900e+08
Current MIP best bound =  2.2567326400e+08 (gap = 1.91364e+06, 0.84%)
Solution time =  100.00 sec.  Iterations = 2026389  Nodes = 152803 (120577)
Deterministic time = 113774.80 ticks  (1137.74 ticks/sec)


Incumbent solution written to file '/tmp/tmpK7qo_T.cplex.sol'.
